(set-info :smt-lib-version 2.6)
(set-logic QF_S)
(set-info :source |
Generated by: Murphy Berzish, Mitja Kulczynski, Federico Mora, Florin Manea, Joel Day, Dirk Nowotka, Vijay Ganesh, Zhengyang Lu
Generated on: 2020-10-01
Description: Translated from a collection of real-world regex queries, AutomataArk, collected by Loris D’Antoni and Fang Wang: https://github.com/lorisdanto/automatark
Application: Evaluate solvers on real-world regex queries
Target solver: Z3str3RE, CVC4, OSTRICH, Z3seq, Z3str3, Z3-Trau
Publications: Berzish, M., Kulczynski, M., Mora, F., Manea, F., Day, J. D., Nowotka, D., & Ganesh, V. (2021, July). An SMT solver for regular expressions and linear arithmetic over string length. In CAV 2021.
|)
(set-info :license "https://creativecommons.org/licenses/by/4.0/")
(set-info :category "industrial")
(set-info :status unsat)

(declare-const X String)
(assert (str.in_re X (re.union (re.++ (re.opt (str.to_re "-")) (re.+ (re.range "1" "9")) (str.to_re ".") (re.+ (re.range "0" "9"))) (re.++ (str.to_re "\u{a}") (re.opt (str.to_re "-")) (re.+ (re.range "1" "9"))) (str.to_re "0") (re.++ (re.opt (str.to_re "-")) (str.to_re "0.") (re.+ (re.range "0" "9"))))))
(assert (not (str.in_re X (re.++ (str.to_re "aohobygi/zwiw") (re.+ (re.union (str.to_re " ") (str.to_re "\u{9}") (str.to_re "\u{a}") (str.to_re "\u{c}") (str.to_re "\u{d}"))) (str.to_re "+The+password+is:\u{a}")))))
(assert (not (str.in_re X (re.++ (str.to_re "\u{a}") (re.union (str.to_re "C") (str.to_re "c")) (re.union (str.to_re "H") (str.to_re "h")) (re.union (str.to_re "A") (str.to_re "a")) (re.union (str.to_re "N") (str.to_re "n")) (re.union (str.to_re "D") (str.to_re "d")) (re.union (str.to_re "A") (str.to_re "a")) (re.union (str.to_re "N") (str.to_re "n")) (re.* re.allchar)))))
(assert (str.in_re X (re.++ ((_ re.loop 5 5) (re.union (re.range "A" "Z") (re.range "a" "z"))) ((_ re.loop 4 4) (re.range "0" "9")) ((_ re.loop 1 1) (re.union (re.range "A" "Z") (re.range "a" "z"))) (str.to_re "\u{a}"))))
(assert (not (str.in_re X (re.++ (re.+ (re.union (str.to_re " ") (str.to_re "\u{9}") (str.to_re "\u{a}") (str.to_re "\u{c}") (str.to_re "\u{d}"))) (str.to_re "\u{a}")))))
(check-sat)

(exit)
